p wcnf 183 274 275 
1 -105 127 0 
1 19 -131 0 
1 -166 -150 0 
1 -40 164 0 
1 -145 167 0 
1 99 -20 0 
1 169 171 0 
1 -27 -77 0 
1 130 25 0 
1 -85 -38 0 
1 140 -119 0 
1 -128 -108 0 
1 -61 -145 0 
1 84 -127 0 
1 113 -86 0 
1 26 21 0 
1 -85 -15 0 
1 152 -135 0 
1 125 34 0 
1 155 -46 0 
1 -144 83 0 
1 -86 -28 0 
1 11 163 0 
1 -73 47 0 
1 116 52 0 
1 -73 36 0 
1 -128 -66 0 
1 -23 -40 0 
1 -43 44 0 
1 -77 -62 0 
1 -129 -27 0 
1 -68 -31 0 
1 70 74 0 
1 169 -179 0 
1 -160 -111 0 
1 -102 -138 0 
1 -136 -46 0 
1 -161 -44 0 
1 33 159 0 
1 45 26 0 
1 103 130 0 
1 -34 -87 0 
1 73 -76 0 
1 -182 117 0 
1 -51 -130 0 
1 47 16 0 
1 -163 -145 0 
1 22 -150 0 
1 -130 121 0 
1 9 -62 0 
1 171 -33 0 
1 68 133 0 
1 -38 -174 0 
1 -57 -118 0 
1 -55 172 0 
1 -133 18 0 
1 -135 5 0 
1 -87 71 0 
1 -17 20 0 
1 162 -77 0 
1 -127 17 0 
1 46 34 0 
1 -157 52 0 
1 152 128 0 
1 -64 169 0 
1 19 -168 0 
1 92 145 0 
1 -119 -122 0 
1 -24 177 0 
1 -175 12 0 
1 -145 83 0 
1 154 28 0 
1 -73 -21 0 
1 -62 -127 0 
1 81 -94 0 
1 20 122 0 
1 120 122 0 
1 -67 -47 0 
1 -34 72 0 
1 156 -15 0 
1 67 28 0 
1 -180 -75 0 
1 131 -99 0 
1 -154 58 0 
1 -173 -51 0 
1 149 144 0 
1 152 -154 0 
1 -104 -177 0 
1 -22 -143 0 
1 70 -91 0 
1 37 -131 0 
1 32 -14 0 
1 175 -21 0 
1 -55 107 0 
1 -171 -143 0 
1 -135 166 0 
1 59 33 0 
1 -106 -27 0 
1 -54 -104 0 
1 94 -79 0 
1 15 171 0 
1 -164 162 0 
1 60 111 0 
1 15 56 0 
1 -111 63 0 
1 24 112 0 
1 -26 -151 0 
1 -148 -6 0 
1 -69 -31 0 
1 -55 129 0 
1 147 -30 0 
1 25 -88 0 
1 -86 -136 0 
1 128 -13 0 
1 -115 91 0 
1 -44 115 0 
1 -179 -164 0 
1 -59 131 0 
1 -147 115 0 
1 81 40 0 
1 74 -86 0 
1 179 171 0 
1 117 18 0 
1 75 -6 0 
1 -102 175 0 
1 -146 -60 0 
1 -153 35 0 
1 -19 135 0 
1 -146 -23 0 
1 -171 24 0 
1 -173 171 0 
1 -49 153 0 
1 134 179 0 
1 -111 -79 0 
1 -8 133 0 
1 88 152 0 
1 108 181 0 
1 -4 -44 0 
1 -160 54 0 
1 92 -32 0 
1 -88 102 0 
1 31 114 0 
1 -151 9 0 
1 -165 8 0 
1 -128 -109 0 
1 149 52 0 
1 113 40 0 
1 177 169 0 
1 -37 -6 0 
1 183 -76 0 
1 113 46 0 
1 -36 -23 0 
1 -118 -167 0 
1 -5 7 0 
1 64 -94 0 
1 60 136 0 
1 92 -165 0 
1 66 77 0 
1 -123 -6 0 
1 -61 -79 0 
1 -46 -61 0 
1 -78 36 0 
1 79 -59 0 
1 81 94 0 
1 -182 41 0 
1 138 159 0 
1 -48 -120 0 
1 -133 -183 0 
1 -171 34 0 
1 95 -6 0 
1 11 28 0 
1 58 -116 0 
1 148 4 0 
1 127 56 0 
1 94 56 0 
1 23 166 0 
1 -113 -119 0 
1 114 -61 0 
1 -162 -114 0 
1 -137 -80 0 
1 61 97 0 
1 -14 -68 0 
1 16 150 0 
1 145 -105 0 
1 -110 127 0 
1 95 167 0 
1 101 153 0 
1 155 150 0 
1 -56 22 0 
1 49 147 0 
1 -10 75 0 
1 109 71 0 
1 -126 -150 0 
1 -161 100 0 
1 70 37 0 
1 -57 30 0 
1 167 -83 0 
1 -15 -124 0 
1 103 -112 0 
1 -159 -35 0 
1 26 -44 0 
1 102 -170 0 
1 6 -18 0 
1 96 -16 0 
1 109 -37 0 
1 -88 74 0 
1 123 -145 0 
1 62 -38 0 
1 -6 -58 0 
1 -32 -81 0 
1 -1 -164 0 
1 89 -78 0 
1 158 57 0 
1 151 -173 0 
1 -90 96 0 
1 -96 64 0 
1 -91 142 0 
1 84 -53 0 
1 -102 71 0 
1 68 163 0 
1 38 112 0 
1 -8 16 0 
1 -51 170 0 
1 142 -176 0 
1 58 7 0 
1 27 -25 0 
1 36 72 0 
1 -126 -35 0 
1 -86 -36 0 
1 12 -182 0 
1 -55 -42 0 
1 32 -131 0 
1 28 173 0 
1 -21 -105 0 
1 6 -90 0 
1 124 109 0 
1 82 -6 0 
1 -161 134 0 
1 99 124 0 
1 71 159 0 
1 -14 -111 0 
1 -57 51 0 
1 -173 -138 0 
1 132 124 0 
1 -59 19 0 
1 160 155 0 
1 -89 -83 0 
1 -35 -165 0 
1 126 -13 0 
1 -61 -32 0 
1 89 -58 0 
1 -63 150 0 
1 177 120 0 
1 65 60 0 
1 -140 -104 0 
1 53 13 0 
1 -114 -23 0 
1 -89 -40 0 
1 54 176 0 
1 18 42 0 
1 -124 -97 0 
1 49 171 0 
1 57 -21 0 
1 129 -175 0 
1 -134 -43 0 
1 141 -49 0 
1 26 94 0 
1 -68 -168 0 
1 -139 113 0 
1 -50 -133 0 
1 -158 -104 0 
1 144 72 0 
1 -2 -176 0 
1 63 -85 0 
